p td 22 162
3 1
4 1
4 3
5 1
5 3
5 4
6 4
6 3
6 1
7 6
7 2
7 4
8 3
8 4
8 2
8 1
8 7
9 3
9 6
9 7
9 2
9 8
9 5
9 1
10 6
10 9
10 8
10 2
10 3
10 1
10 7
11 3
11 6
11 9
11 1
11 4
12 9
12 1
12 2
12 11
12 4
12 10
12 7
12 6
13 12
13 10
13 11
13 1
13 3
13 2
13 7
14 3
14 12
14 11
14 7
14 9
14 10
14 5
14 4
14 13
14 1
15 8
15 2
15 6
15 7
15 13
15 12
15 4
15 1
15 11
16 8
16 7
16 4
16 5
16 10
16 1
16 11
16 15
16 2
16 13
17 14
17 12
17 7
17 8
17 3
17 16
17 4
17 5
17 1
17 15
17 11
17 9
18 3
18 15
18 9
18 10
18 5
18 2
18 1
18 14
18 8
18 7
18 13
18 16
18 4
19 9
19 16
19 8
19 5
19 18
19 7
19 2
19 15
19 14
19 1
19 17
19 10
19 6
19 11
20 14
20 16
20 3
20 2
20 15
20 1
20 19
20 6
20 9
20 17
20 4
20 7
20 13
20 5
21 9
21 15
21 8
21 17
21 4
21 11
21 3
21 6
21 1
21 14
21 12
21 18
21 5
22 7
22 5
22 1
22 12
22 10
22 14
22 6
22 19
22 2
22 4
22 17
22 9
22 3
22 18
22 13
22 8
